(set-logic QF_FP)
(set-info :source |Random FP created by PyMPF|)
(set-info :category random)
(set-info :status unsat)
(declare-const x Float32)
(assert (= x (_ +zero 8 24)))
(declare-const y Float32)
(assert (= y (fp #b1 #b00000000 #b10111000001101111110110)))
(declare-const z Float32)
(assert (= z (fp #b0 #b00000000 #b01110001000010100000011)))
(declare-const result Float32)
(assert (= result (fp.fma RTZ x y z)))
(assert (not (= result (fp #b0 #b00000000 #b01110001000010100000011))))
(check-sat)
(exit)
